; Copyright (c) 2026 The RIINA Authors. All rights reserved.
; Auto-generated from 02_FORMAL/coq/domains/DependentTypes.v (33 validations)
; Generated by scripts/generate-full-stack.py
;
; Translation Validation for DependentTypes
; Layer 9: Verifies compiler backend preserves formal semantics.
; Each assertion checks source IR ≡ target code for a proven property.

(set-logic QF_LIA)
(set-option :produce-models true)

; IR node representation
(declare-sort IRNode 0)
(declare-sort TargetNode 0)

; TYPE_005_01: translation preserves property (matches Coq: Theorem)
(declare-fun source_TYPE_005_01 () Bool)
(declare-fun target_TYPE_005_01 () Bool)
(assert (= source_TYPE_005_01 target_TYPE_005_01))

; TYPE_005_02: translation preserves property (matches Coq: Theorem)
(declare-fun source_TYPE_005_02 () Bool)
(declare-fun target_TYPE_005_02 () Bool)
(assert (= source_TYPE_005_02 target_TYPE_005_02))

; TYPE_005_03: translation preserves property (matches Coq: Theorem)
(declare-fun source_TYPE_005_03 () Bool)
(declare-fun target_TYPE_005_03 () Bool)
(assert (= source_TYPE_005_03 target_TYPE_005_03))

; TYPE_005_04: translation preserves property (matches Coq: Theorem)
(declare-fun source_TYPE_005_04 () Bool)
(declare-fun target_TYPE_005_04 () Bool)
(assert (= source_TYPE_005_04 target_TYPE_005_04))

; TYPE_005_05: translation preserves property (matches Coq: Theorem)
(declare-fun source_TYPE_005_05 () Bool)
(declare-fun target_TYPE_005_05 () Bool)
(assert (= source_TYPE_005_05 target_TYPE_005_05))

; TYPE_005_06: translation preserves property (matches Coq: Theorem)
(declare-fun source_TYPE_005_06 () Bool)
(declare-fun target_TYPE_005_06 () Bool)
(assert (= source_TYPE_005_06 target_TYPE_005_06))

; TYPE_005_07: translation preserves property (matches Coq: Theorem)
(declare-fun source_TYPE_005_07 () Bool)
(declare-fun target_TYPE_005_07 () Bool)
(assert (= source_TYPE_005_07 target_TYPE_005_07))

; TYPE_005_08: translation preserves property (matches Coq: Theorem)
(declare-fun source_TYPE_005_08 () Bool)
(declare-fun target_TYPE_005_08 () Bool)
(assert (= source_TYPE_005_08 target_TYPE_005_08))

; vec_cons_length_semantic: translation preserves property (matches Coq: Lemma)
(declare-fun source_vec_cons_length_semantic () Bool)
(declare-fun target_vec_cons_length_semantic () Bool)
(assert (= source_vec_cons_length_semantic target_vec_cons_length_semantic))

; TYPE_005_09: translation preserves property (matches Coq: Theorem)
(declare-fun source_TYPE_005_09 () Bool)
(declare-fun target_TYPE_005_09 () Bool)
(assert (= source_TYPE_005_09 target_TYPE_005_09))

; vec_head_nonempty_semantic: translation preserves property (matches Coq: Lemma)
(declare-fun source_vec_head_nonempty_semantic () Bool)
(declare-fun target_vec_head_nonempty_semantic () Bool)
(assert (= source_vec_head_nonempty_semantic target_vec_head_nonempty_semantic))

; TYPE_005_10: translation preserves property (matches Coq: Theorem)
(declare-fun source_TYPE_005_10 () Bool)
(declare-fun target_TYPE_005_10 () Bool)
(assert (= source_TYPE_005_10 target_TYPE_005_10))

; vec_dep_pattern_match: translation preserves property (matches Coq: Lemma)
(declare-fun source_vec_dep_pattern_match () Bool)
(declare-fun target_vec_dep_pattern_match () Bool)
(assert (= source_vec_dep_pattern_match target_vec_dep_pattern_match))

; TYPE_005_11: translation preserves property (matches Coq: Theorem)
(declare-fun source_TYPE_005_11 () Bool)
(declare-fun target_TYPE_005_11 () Bool)
(assert (= source_TYPE_005_11 target_TYPE_005_11))

; transport_refl: translation preserves property (matches Coq: Lemma)
(declare-fun source_transport_refl () Bool)
(declare-fun target_transport_refl () Bool)
(assert (= source_transport_refl target_transport_refl))

; transport_trans: translation preserves property (matches Coq: Lemma)
(declare-fun source_transport_trans () Bool)
(declare-fun target_transport_trans () Bool)
(assert (= source_transport_trans target_transport_trans))

; TYPE_005_12: translation preserves property (matches Coq: Theorem)
(declare-fun source_TYPE_005_12 () Bool)
(declare-fun target_TYPE_005_12 () Bool)
(assert (= source_TYPE_005_12 target_TYPE_005_12))

; dep_congruence: translation preserves property (matches Coq: Lemma)
(declare-fun source_dep_congruence () Bool)
(declare-fun target_dep_congruence () Bool)
(assert (= source_dep_congruence target_dep_congruence))

; congruence2: translation preserves property (matches Coq: Lemma)
(declare-fun source_congruence2 () Bool)
(declare-fun target_congruence2 () Bool)
(assert (= source_congruence2 target_congruence2))

; lt_wf_aux: translation preserves property (matches Coq: Lemma)
(declare-fun source_lt_wf_aux () Bool)
(declare-fun target_lt_wf_aux () Bool)
(assert (= source_lt_wf_aux target_lt_wf_aux))

; lt_well_founded: translation preserves property (matches Coq: Lemma)
(declare-fun source_lt_well_founded () Bool)
(declare-fun target_lt_well_founded () Bool)
(assert (= source_lt_well_founded target_lt_well_founded))

; TYPE_005_13: translation preserves property (matches Coq: Theorem)
(declare-fun source_TYPE_005_13 () Bool)
(declare-fun target_TYPE_005_13 () Bool)
(assert (= source_TYPE_005_13 target_TYPE_005_13))

; nat_dep_ind: translation preserves property (matches Coq: Lemma)
(declare-fun source_nat_dep_ind () Bool)
(declare-fun target_nat_dep_ind () Bool)
(assert (= source_nat_dep_ind target_nat_dep_ind))

; strong_ind: translation preserves property (matches Coq: Lemma)
(declare-fun source_strong_ind () Bool)
(declare-fun target_strong_ind () Bool)
(assert (= source_strong_ind target_strong_ind))

; TYPE_005_14: translation preserves property (matches Coq: Theorem)
(declare-fun source_TYPE_005_14 () Bool)
(declare-fun target_TYPE_005_14 () Bool)
(assert (= source_TYPE_005_14 target_TYPE_005_14))

; dec_eq_nat: translation preserves property (matches Coq: Lemma)
(declare-fun source_dec_eq_nat () Bool)
(declare-fun target_dec_eq_nat () Bool)
(assert (= source_dec_eq_nat target_dec_eq_nat))

; dec_eq_bool: translation preserves property (matches Coq: Lemma)
(declare-fun source_dec_eq_bool () Bool)
(declare-fun target_dec_eq_bool () Bool)
(assert (= source_dec_eq_bool target_dec_eq_bool))

; dec_eq_prod: translation preserves property (matches Coq: Lemma)
(declare-fun source_dec_eq_prod () Bool)
(declare-fun target_dec_eq_prod () Bool)
(assert (= source_dec_eq_prod target_dec_eq_prod))

; dec_eq_option: translation preserves property (matches Coq: Lemma)
(declare-fun source_dec_eq_option () Bool)
(declare-fun target_dec_eq_option () Bool)
(assert (= source_dec_eq_option target_dec_eq_option))

; dec_eq_list: translation preserves property (matches Coq: Lemma)
(declare-fun source_dec_eq_list () Bool)
(declare-fun target_dec_eq_list () Bool)
(assert (= source_dec_eq_list target_dec_eq_list))

; dec_to_bool: translation preserves property (matches Coq: Lemma)
(declare-fun source_dec_to_bool () Bool)
(declare-fun target_dec_to_bool () Bool)
(assert (= source_dec_to_bool target_dec_to_bool))

; nat_eq_reflect: translation preserves property (matches Coq: Lemma)
(declare-fun source_nat_eq_reflect () Bool)
(declare-fun target_nat_eq_reflect () Bool)
(assert (= source_nat_eq_reflect target_nat_eq_reflect))

; uip_dec: translation preserves property (matches Coq: Lemma)
(declare-fun source_uip_dec () Bool)
(declare-fun target_uip_dec () Bool)
(assert (= source_uip_dec target_uip_dec))

; Verify all translation validations are satisfiable
(check-sat)
(exit)
